
277
400
   320      4
   319      2
   318      6
   317      4
   316      2
   315      4
   314      5
   313      2
   312      3
   311      1
   310      3
   309      3
   308      4
   307      5
   306      1
   305      3
   304      3
   303      2
   302      3
   301      3
   300      2
   299      1
   298      4
   297      2
   296      1
   295      2
   294      5
   293      2
   292      7
   291      4
   290      1
   289      8
   288      7
   287      5
   286      1
   285      5
   284      3
   283      2
   282      2
   281      1
   280      2
   279      1
   278      3
   277      3
   276      4
   275      2
   274      6
   273      3
   272      4
   271      5
   270      1
   269      5
   268      3
   267      5
   266      3
   265      3
   264      2
   263      4
   262      4
   261      5
   260      2
   259      2
   258      3
   257      5
   256      5
   255      4
   254      5
   253      4
   252      3
   251      6
   250      3
   249      5
   248      2
   247      1
   246      5
   245      2
   244      3
   243      1
   242      3
   241      5
   240      1
   239      2
   238      2
   237      5
   236      6
   235      7
   234      2
   233      3
   232      5
   231      4
   230      2
   229      3
   228      3
   227      1
   226      1
   225      1
   224      3
   223      3
   222      2
   221      4
   220      6
   219      2
   218      1
   217      4
   216      3
   215      3
   214      7
   213      3
   212      6
   211      5
   210      4
   209      4
   208      7
   207      4
   205      2
   204      1
   203      4
   202      2
   201      1
   200      6
   199      4
   198      2
   197      3
   196      3
   195      3
   194      1
   193      7
   192      6
   191     10
   190      2
   189      2
   188      3
   187      3
   186      3
   185      5
   183      2
   182      1
   181      7
   180      2
   179      3
   178      3
   177      2
   176      3
   175      4
   174      2
   173      9
   172      1
   171      3
   170      3
   169      3
   168      3
   167      2
   166      3
   165      3
   164      3
   163      4
   162      6
   161      3
   160      4
   159      1
   158      2
   157      6
   156      3
   155      2
   154      4
   153      7
   152      4
   151      4
   150      2
   149      7
   148      2
   147      6
   146      2
   145      9
   144      2
   143      4
   142      7
   141      1
   140      3
   139      6
   138      3
   136      3
   135      4
   134      4
   133      4
   132      3
   131      4
   130      3
   129      5
   128      3
   127      4
   126      2
   125      3
   124      3
   123      6
   122      4
   121      5
   120      5
   119      8
   118      4
   117      2
   116      4
   115      2
   114      7
   113      8
   112      3
   111      2
   110      2
   109      3
   108      3
   107      4
   106      5
   105      6
   104      4
   103      3
   102      4
   101      2
   100      3
    99      6
    98      3
    97      6
    96      3
    95      2
    94      3
    93      3
    92      5
    91      5
    90      5
    89      6
    88      1
    87      1
    86      5
    85      3
    84      1
    83      6
    82      1
    81      7
    80      5
    78      3
    77      3
    76      5
    75      4
    74      4
    73      5
    72      4
    71      4
    70      3
    69      3
    68      7
    67      2
    66      8
    65      2
    64      4
    63      5
    62      5
    61      2
    60      3
    59      4
    58      6
    57      2
    56      1
    55      5
    54      2
    53      6
    52      4
    51      5
    50      3
    49      7
    48      6
    47      2
    46      5
    45      2
    44      4
    43      4
    42      2
    41      8
    40      2




The initial LP solution: time=0.45


File: BPP_1000_400_0.1_0.8_0.txt  Instance No. 1
Wed Feb 25 13:54:51 2015

LP solution: lpval=435.471032745592 lpbnd=436

4: 0:1 237:1 obj 1\\
2: 1:1 236:1 obj 1\\
1: 2:1 235:1 obj 1\\
2.141298405793246: 2:1 236:1 obj 1\\
4: 3:1 234:1 obj 1\\
1: 4:1 233:1 obj 1\\
0.3299538169086998: 4:1 234:1 obj 1\\
3: 5:1 232:1 obj 1\\
5: 6:1 231:1 obj 1\\
1: 7:1 230:1 obj 1\\
1: 8:1 229:1 obj 1\\
0.8299538169086997: 8:1 272:2 obj 1\\
1: 9:1 228:1 obj 1\\
3: 10:1 227:1 obj 1\\
3: 11:1 226:1 obj 1\\
4: 12:1 225:1 obj 1\\
3: 13:1 224:1 obj 1\\
1: 14:1 223:1 obj 1\\
2: 15:1 222:1 obj 1\\
3: 16:1 221:1 obj 1\\
2: 17:1 220:1 obj 1\\
3: 18:1 219:1 obj 1\\
3: 19:1 218:1 obj 1\\
2: 20:1 217:1 obj 1\\
1: 21:1 216:1 obj 1\\
4: 22:1 215:1 obj 1\\
2: 23:1 214:1 obj 1\\
1: 24:1 213:1 obj 1\\
2: 25:1 212:1 obj 1\\
5: 26:1 211:1 obj 1\\
2: 27:1 210:1 obj 1\\
3: 28:1 209:1 obj 1\\
3: 29:1 208:1 obj 1\\
1: 30:1 207:1 obj 1\\
2: 31:1 206:1 obj 1\\
1.859731290937105: 31:1 254:1 267:1 obj 1\\
1.3299538169087: 31:1 257:1 264:1 obj 1\\
3: 32:1 205:1 obj 1\\
3.81090035542769: 32:1 250:1 270:1 obj 1\\
0.1890996445723101: 32:1 255:1 265:1 obj 1\\
5: 33:1 204:1 obj 1\\
1: 34:1 203:1 obj 1\\
2: 35:1 202:1 obj 1\\
0.8556763868739348: 35:1 256:1 261:1 obj 1\\
3: 36:1 201:1 obj 1\\
2: 37:1 200:1 obj 1\\
2: 38:1 199:1 obj 1\\
1: 39:1 198:1 obj 1\\
2: 40:1 197:1 obj 1\\
1: 41:1 196:1 obj 1\\
3: 42:1 195:1 obj 1\\
3: 43:1 194:1 obj 1\\
3: 44:1 193:1 obj 1\\
2: 45:1 192:1 obj 1\\
2: 46:1 191:1 obj 1\\
4: 46:1 248:1 258:1 obj 1\\
3: 47:1 190:1 obj 1\\
3: 48:1 189:1 obj 1\\
5: 49:1 188:1 obj 1\\
1: 50:1 187:1 obj 1\\
4: 51:1 186:1 obj 1\\
3: 52:1 185:1 obj 1\\
4: 53:1 184:1 obj 1\\
3: 54:1 183:1 obj 1\\
3: 55:1 182:1 obj 1\\
2: 56:1 181:1 obj 1\\
0.3647098977505944: 57:1 181:1 obj 1\\
1.691082223090728: 57:1 227:1 269:1 obj 1\\
3: 58:1 180:1 obj 1\\
5: 59:1 179:1 obj 1\\
2: 60:1 178:1 obj 1\\
1: 61:1 177:1 obj 1\\
3: 62:1 176:1 obj 1\\
4: 63:1 175:1 obj 1\\
1: 63:1 176:1 obj 1\\
2: 64:1 174:1 obj 1\\
2: 64:1 244:2 obj 1\\
4: 65:1 173:1 obj 1\\
2: 66:1 172:1 obj 1\\
0.4201642292825762: 66:1 240:1 246:1 obj 1\\
4: 67:1 171:1 obj 1\\
2: 68:1 170:1 obj 1\\
6: 69:1 169:1 obj 1\\
2: 70:1 168:1 obj 1\\
4: 71:1 167:1 obj 1\\
2: 72:1 166:1 obj 1\\
1: 73:1 165:1 obj 1\\
4: 74:1 164:1 obj 1\\
2: 75:1 163:1 obj 1\\
3: 76:1 162:1 obj 1\\
1: 77:1 161:1 obj 1\\
2: 78:1 160:1 obj 1\\
0.5341715997519985: 78:1 161:1 obj 1\\
1: 79:1 159:1 obj 1\\
1: 80:1 158:1 obj 1\\
2: 81:1 157:1 obj 1\\
2: 82:1 156:1 obj 1\\
4: 83:1 155:1 obj 1\\
3: 84:1 154:1 obj 1\\
3: 85:1 153:1 obj 1\\
0.8465048382773321: 85:1 195:1 273:1 obj 1\\
0.1534951617226679: 85:1 201:1 267:1 obj 1\\
3: 85:1 218:1 250:1 obj 1\\
2: 86:1 152:1 obj 1\\
2: 87:1 151:1 obj 1\\
1: 87:1 152:1 obj 1\\
3: 88:1 150:1 obj 1\\
3: 89:1 149:1 obj 1\\
1: 89:1 194:1 270:1 obj 1\\
2: 90:1 148:1 obj 1\\
3: 91:1 147:1 obj 1\\
1: 92:1 146:1 obj 1\\
0.3944590930762197: 92:1 194:1 267:1 obj 1\\
1: 93:1 145:1 obj 1\\
1: 94:1 144:1 obj 1\\
1: 95:1 143:1 obj 1\\
3: 96:1 142:1 obj 1\\
2: 97:1 141:1 obj 1\\
2: 98:1 140:1 obj 1\\
3: 99:1 139:1 obj 1\\
2: 100:1 138:1 obj 1\\
1.889488712050369: 100:1 213:1 240:1 obj 1\\
2: 101:1 137:1 obj 1\\
1: 102:1 136:1 obj 1\\
2: 103:1 135:1 obj 1\\
1.322531414528541: 104:1 187:1 262:1 obj 1\\
3: 105:1 134:1 obj 1\\
3: 106:1 133:1 obj 1\\
0.0819247115347238: 106:1 199:1 248:1 obj 1\\
2.692785656845513: 106:1 220:1 228:1 obj 1\\
3: 107:1 132:1 obj 1\\
3: 108:1 131:1 obj 1\\
0.4511891174057245: 108:1 203:1 242:1 obj 1\\
2: 109:1 130:1 obj 1\\
2: 110:1 129:1 obj 1\\
4: 111:1 128:1 obj 1\\
6: 112:1 127:1 obj 1\\
4: 113:1 126:1 obj 1\\
2: 114:1 124:1 obj 1\\
1: 115:1 123:1 obj 1\\
3: 116:1 122:1 obj 1\\
0.6597376342061809: 116:1 123:1 obj 1\\
2: 117:1 121:1 obj 1\\
1: 118:1 120:1 obj 1\\
3: 119:2 obj 1\\
1: 124:1 165:1 264:1 obj 1\\
1: 128:1 157:1 268:1 obj 1\\
2.506412472094732: 128:1 173:1 252:1 obj 1\\
1.08619401809264: 134:1 171:1 248:1 obj 1\\
0.01882604505357999: 143:2 266:1 obj 1\\
1.835405836216794: 35:1 203:1 obj 1\\
0.1700461830913002: 64:1 225:1 264:1 obj 1\\
1.055223354689007: 108:1 196:1 249:1 obj 1\\
0.6599076338173996: 5:1 273:1 274:1 obj 1\\
2.92469581978568: 145:1 165:1 242:1 obj 1\\
0.005327650309899346: 176:2 201:1 obj 1\\
0.3072143431544873: 58:1 220:1 275:1 obj 1\\
0.2061140929022911: 58:1 247:2 obj 1\\
0.06980337912082285: 125:1 214:2 obj 1\\
1.634015064240946: 156:1 198:2 obj 1\\
0.03765209010715997: 165:1 190:1 197:1 obj 1\\
2.858701594206754: 2:1 275:2 obj 1\\
1: 51:1 247:1 254:1 obj 1\\
0.7917226477214365: 57:1 238:1 257:1 obj 1\\
1: 83:1 198:1 272:1 obj 1\\
0.5341715997519985: 84:1 216:1 253:1 obj 1\\
1.404746852408498: 110:1 210:1 234:1 obj 1\\
0.5: 144:2 264:1 obj 1\\
1.1700461830913: 8:1 268:1 276:1 obj 1\\
1.195938752667754: 28:1 259:1 265:1 obj 1\\
1: 44:1 245:1 263:1 obj 1\\
0.1492933802871678: 66:1 234:1 253:1 obj 1\\
2: 88:1 226:1 239:1 obj 1\\
1.60554090692378: 92:1 196:1 265:1 obj 1\\
1.587771814195418: 103:1 203:1 247:1 obj 1\\
0.340262365793819: 116:1 176:1 261:1 obj 1\\
1.121676464630136: 128:1 158:1 267:1 obj 1\\
1: 137:1 140:1 275:1 obj 1\\
0.4478126157390834: 145:2 262:1 obj 1\\
0.6700461830913003: 4:1 274:2 obj 1\\
0.8299538169086997: 13:1 263:1 276:1 obj 1\\
1.1700461830913: 13:1 268:1 271:1 obj 1\\
2.804061247332246: 28:1 261:1 263:1 obj 1\\
1: 29:1 256:1 267:1 obj 1\\
1.430542390430256: 66:1 243:2 obj 1\\
1: 74:1 165:1 obj 1\\
1.110511287949631: 84:1 213:1 256:1 obj 1\\
0.1396067582416457: 99:1 227:1 228:1 obj 1\\
1.339235738387214: 104:1 196:1 253:1 obj 1\\
1.918075288465276: 109:1 199:1 245:1 obj 1\\
0.5877718141954178: 125:1 192:1 236:1 obj 1\\
0.6930096765546643: 126:1 179:1 248:1 obj 1\\
0.9138059819073596: 128:1 171:1 254:1 obj 1\\
1.226462727155535: 137:1 161:1 254:1 obj 1\\
2.96234790989284: 143:1 197:1 212:1 obj 1\\
1.990579304163844: 145:1 203:1 204:1 obj 1\\
0.3089177769092717: 35:1 248:1 269:1 obj 1\\
0.4122281858045822: 53:1 246:1 253:1 obj 1\\
1: 61:1 239:1 252:1 obj 1\\
1: 71:1 240:1 241:1 obj 1\\
1.832392415087158: 79:1 236:1 238:1 obj 1\\
0.6352901022494056: 97:1 181:1 275:1 obj 1\\
1.430602631024315: 100:1 198:1 255:1 obj 1\\
0.4122281858045822: 103:1 192:1 258:1 obj 1\\
0.3382328470842451: 104:1 190:1 259:1 obj 1\\
0.6774685854714586: 106:1 187:1 260:1 obj 1\\
0.4935875279052682: 108:1 173:1 273:1 obj 1\\
0.6112867219008531: 109:1 201:1 243:1 obj 1\\
0.5952531475915022: 110:1 198:1 245:1 obj 1\\
1: 112:1 183:1 258:1 obj 1\\
2: 120:1 166:1 267:1 obj 1\\
1: 123:1 169:1 261:1 obj 1\\
1.878323535369864: 137:1 158:1 257:1 obj 1\\
1.03765209010716: 165:1 176:1 212:1 obj 1\\
1: 173:2 207:1 obj 1\\
0.1534951617226679: 179:2 195:1 obj 1\\
1: 7:1 272:1 273:1 obj 1\\
1: 15:1 264:1 273:1 obj 1\\
1: 48:1 241:1 263:1 obj 1\\
0.8299538169086997: 57:1 225:1 271:1 obj 1\\
0.4866715639432216: 58:1 245:1 249:1 obj 1\\
0.8299538169086997: 64:1 240:1 248:1 obj 1\\
0.2938859070977089: 70:1 217:1 266:1 obj 1\\
2.167607584912842: 79:1 228:1 246:1 obj 1\\
0.1160059503956345: 84:1 234:1 236:1 obj 1\\
0.1350539280182191: 97:1 203:1 253:1 obj 1\\
0.5952531475915022: 100:1 210:1 243:1 obj 1\\
0.5478210461483055: 106:1 134:1 obj 1\\
0.4706379896338708: 109:1 178:1 267:1 obj 1\\
0.1533251621114493: 125:1 176:1 252:1 obj 1\\
0.7061140929022911: 137:1 198:1 217:1 obj 1\\
2: 145:1 156:1 251:1 obj 1\\
0.9323753496471308: 148:1 161:1 243:1 obj 1\\
1: 176:1 182:1 194:1 obj 1\\
2.43001716775082: 31:1 253:1 268:1 obj 1\\
0.3802977244033754: 31:1 255:1 266:1 obj 1\\
0.5877718141954178: 53:1 241:1 258:1 obj 1\\
0.3225314145285414: 57:1 236:1 260:1 obj 1\\
1: 66:1 237:1 250:1 obj 1\\
1: 68:1 220:1 265:1 obj 1\\
0.2298904660665797: 84:1 201:1 268:1 obj 1\\
0.2296559697323752: 97:1 194:1 262:1 obj 1\\
0.8603932417583543: 99:1 214:1 240:1 obj 1\\
1: 108:1 223:2 obj 1\\
0.624115062808595: 120:1 190:1 242:1 obj 1\\
0.340262365793819: 123:1 178:1 252:1 obj 1\\
2.306990323445336: 126:1 161:1 266:1 obj 1\\
0.4581050813677723: 128:1 176:1 249:1 obj 1\\
0.1890996445723101: 137:1 145:1 270:1 obj 1\\
0.3400923661826004: 5:1 272:1 275:1 obj 1\\
0.7061140929022911: 70:1 241:2 obj 1\\
0.4658284002480015: 78:1 216:1 259:1 obj 1\\
1.009420695836156: 84:1 204:1 265:1 obj 1\\
0.08465550933381305: 100:1 227:2 obj 1\\
0.375884937191405: 120:1 194:1 238:1 obj 1\\
0.1890996445723101: 125:1 178:1 250:1 obj 1\\
0.3659849357590541: 134:1 156:1 263:1 obj 1\\
0.03381232517643462: 148:2 256:1 obj 1\\






File: BPP_1000_400_0.1_0.8_0.txt  Instance No. 1
Wed Feb 25 13:54:51 2015

LP0 Time: 0.45 IPTime: 0.45 The best integer solution (436):

4: 0:1 237:1 obj 1\\
2: 1:1 236:1 obj 1\\
1: 2:1 235:1 obj 1\\
5: 2:1 236:1 obj 1\\
4: 3:1 234:1 obj 1\\
1: 4:1 233:1 obj 1\\
1: 4:1 234:1 obj 1\\
3: 5:1 232:1 obj 1\\
1: 5:1 271:1 276:1 obj 1\\
5: 6:1 231:1 obj 1\\
1: 7:1 230:1 obj 1\\
1: 7:1 270:1 275:1 obj 1\\
1: 8:1 229:1 obj 1\\
2: 8:1 272:2 obj 1\\
1: 9:1 228:1 obj 1\\
3: 10:1 227:1 obj 1\\
3: 11:1 226:1 obj 1\\
4: 12:1 225:1 obj 1\\
3: 13:1 224:1 obj 1\\
1: 13:1 225:1 obj 1\\
1: 13:1 226:1 obj 1\\
1: 14:1 223:1 obj 1\\
2: 15:1 222:1 obj 1\\
1: 15:1 223:1 obj 1\\
3: 16:1 221:1 obj 1\\
2: 17:1 220:1 obj 1\\
3: 18:1 219:1 obj 1\\
3: 19:1 218:1 obj 1\\
2: 20:1 217:1 obj 1\\
1: 21:1 216:1 obj 1\\
4: 22:1 215:1 obj 1\\
2: 23:1 214:1 obj 1\\
1: 24:1 213:1 obj 1\\
2: 25:1 212:1 obj 1\\
5: 26:1 211:1 obj 1\\
2: 27:1 210:1 obj 1\\
3: 28:1 209:1 obj 1\\
2: 28:1 212:1 obj 1\\
2: 28:1 249:1 275:1 obj 1\\
3: 29:1 208:1 obj 1\\
1: 29:1 210:1 obj 1\\
1: 30:1 207:1 obj 1\\
2: 31:1 206:1 obj 1\\
5: 31:1 254:1 267:1 obj 1\\
1: 31:1 257:1 264:1 obj 1\\
3: 32:1 205:1 obj 1\\
2: 32:1 250:1 270:1 obj 1\\
2: 32:1 255:1 265:1 obj 1\\
5: 33:1 204:1 obj 1\\
1: 34:1 203:1 obj 1\\
2: 35:1 202:1 obj 1\\
3: 35:1 256:1 261:1 obj 1\\
3: 36:1 201:1 obj 1\\
2: 37:1 200:1 obj 1\\
2: 38:1 199:1 obj 1\\
1: 39:1 198:1 obj 1\\
2: 40:1 197:1 obj 1\\
1: 41:1 196:1 obj 1\\
3: 42:1 195:1 obj 1\\
3: 43:1 194:1 obj 1\\
3: 44:1 193:1 obj 1\\
1: 44:1 194:1 obj 1\\
2: 45:1 192:1 obj 1\\
2: 46:1 191:1 obj 1\\
1: 46:1 192:1 obj 1\\
3: 46:1 248:1 258:1 obj 1\\
3: 47:1 190:1 obj 1\\
3: 48:1 189:1 obj 1\\
1: 48:1 190:1 obj 1\\
5: 49:1 188:1 obj 1\\
1: 50:1 187:1 obj 1\\
4: 51:1 186:1 obj 1\\
1: 51:1 228:1 275:1 obj 1\\
3: 52:1 185:1 obj 1\\
4: 53:1 184:1 obj 1\\
1: 53:1 228:1 273:1 obj 1\\
3: 54:1 183:1 obj 1\\
3: 55:1 182:1 obj 1\\
2: 56:1 181:1 obj 1\\
1: 57:1 181:1 obj 1\\
2: 57:1 227:1 269:1 obj 1\\
1: 57:1 266:1 273:1 276:1 obj 1\\
3: 58:1 180:1 obj 1\\
1: 58:1 182:1 obj 1\\
5: 59:1 179:1 obj 1\\
2: 60:1 178:1 obj 1\\
1: 61:1 177:1 obj 1\\
1: 61:1 178:1 obj 1\\
3: 62:1 176:1 obj 1\\
4: 63:1 175:1 obj 1\\
1: 63:1 176:1 obj 1\\
2: 64:1 174:1 obj 1\\
1: 64:1 179:1 obj 1\\
2: 64:1 244:2 obj 1\\
4: 65:1 173:1 obj 1\\
2: 66:1 172:1 obj 1\\
3: 66:1 240:1 246:1 obj 1\\
4: 67:1 171:1 obj 1\\
2: 68:1 170:1 obj 1\\
1: 68:1 214:1 271:1 obj 1\\
6: 69:1 169:1 obj 1\\
2: 70:1 168:1 obj 1\\
1: 70:1 218:1 265:1 obj 1\\
4: 71:1 167:1 obj 1\\
1: 71:1 169:1 obj 1\\
2: 72:1 166:1 obj 1\\
1: 73:1 165:1 obj 1\\
4: 74:1 164:1 obj 1\\
1: 74:1 228:1 251:1 obj 1\\
2: 75:1 163:1 obj 1\\
3: 76:1 162:1 obj 1\\
1: 77:1 161:1 obj 1\\
2: 78:1 160:1 obj 1\\
1: 78:1 161:1 obj 1\\
1: 79:1 159:1 obj 1\\
4: 79:1 161:1 obj 1\\
1: 80:1 158:1 obj 1\\
2: 81:1 157:1 obj 1\\
2: 82:1 156:1 obj 1\\
4: 83:1 155:1 obj 1\\
1: 83:1 156:1 obj 1\\
3: 84:1 154:1 obj 1\\
3: 84:1 156:1 obj 1\\
3: 85:1 153:1 obj 1\\
1: 85:1 195:1 273:1 obj 1\\
1: 85:1 201:1 267:1 obj 1\\
1: 85:1 212:1 257:1 obj 1\\
1: 85:1 218:1 250:1 obj 1\\
2: 86:1 152:1 obj 1\\
2: 87:1 151:1 obj 1\\
1: 87:1 152:1 obj 1\\
3: 88:1 150:1 obj 1\\
1: 88:1 203:1 264:1 obj 1\\
1: 88:1 203:1 265:1 obj 1\\
3: 89:1 149:1 obj 1\\
1: 89:1 194:1 270:1 obj 1\\
2: 90:1 148:1 obj 1\\
3: 91:1 147:1 obj 1\\
1: 92:1 146:1 obj 1\\
1: 92:1 194:1 267:1 obj 1\\
1: 92:1 239:1 obj 1\\
1: 93:1 145:1 obj 1\\
1: 94:1 144:1 obj 1\\
1: 95:1 143:1 obj 1\\
3: 96:1 142:1 obj 1\\
2: 97:1 141:1 obj 1\\
1: 97:1 196:1 261:1 obj 1\\
2: 98:1 140:1 obj 1\\
3: 99:1 139:1 obj 1\\
1: 99:1 234:1 268:2 obj 1\\
2: 100:1 138:1 obj 1\\
1: 100:1 183:1 270:1 obj 1\\
2: 100:1 213:1 240:1 obj 1\\
1: 100:1 250:1 258:1 260:1 obj 1\\
2: 101:1 137:1 obj 1\\
1: 102:1 136:1 obj 1\\
2: 103:1 135:1 obj 1\\
1: 103:1 204:1 248:1 obj 1\\
1: 103:1 250:2 265:1 obj 1\\
1: 104:1 137:1 obj 1\\
2: 104:1 187:1 262:1 obj 1\\
3: 105:1 134:1 obj 1\\
3: 106:1 133:1 obj 1\\
2: 106:1 199:1 248:1 obj 1\\
2: 106:1 220:1 228:1 obj 1\\
3: 107:1 132:1 obj 1\\
3: 108:1 131:1 obj 1\\
3: 108:1 203:1 242:1 obj 1\\
2: 109:1 130:1 obj 1\\
1: 109:1 203:1 242:1 obj 1\\
2: 109:1 243:1 257:1 259:1 obj 1\\
2: 110:1 129:1 obj 1\\
1: 110:1 250:2 258:1 obj 1\\
1: 110:1 253:3 obj 1\\
4: 111:1 128:1 obj 1\\
6: 112:1 127:1 obj 1\\
1: 112:1 128:1 obj 1\\
4: 113:1 126:1 obj 1\\
2: 114:1 124:1 obj 1\\
1: 115:1 123:1 obj 1\\
3: 116:1 122:1 obj 1\\
1: 116:1 123:1 obj 1\\
2: 117:1 121:1 obj 1\\
1: 118:1 120:1 obj 1\\
3: 119:2 obj 1\\
1: 120:1 143:1 obj 1\\
1: 120:2 obj 1\\
1: 123:1 197:1 274:2 obj 1\\
1: 124:1 165:1 264:1 obj 1\\
1: 125:1 238:2 266:1 obj 1\\
1: 126:1 166:1 261:1 obj 1\\
1: 126:1 171:1 258:1 obj 1\\
1: 126:1 239:2 263:1 obj 1\\
1: 128:1 157:1 268:1 obj 1\\
4: 128:1 173:1 252:1 obj 1\\
1: 134:1 166:1 253:1 obj 1\\
1: 134:1 171:1 248:1 obj 1\\
1: 137:1 148:1 268:1 obj 1\\
2: 137:1 241:2 247:1 obj 1\\
1: 137:1 243:3 obj 1\\
1: 140:1 207:1 247:1 273:1 obj 1\\
1: 143:2 266:1 obj 1\\
1: 144:1 158:1 251:1 obj 1\\
4: 145:2 263:1 obj 1\\
1: 158:2 237:1 obj 1\\
1: 165:1 218:1 264:1 268:2 obj 1\\
1: 165:2 223:1 obj 1\\
1: 165:2 226:1 obj 1\\
1: 173:1 176:1 204:1 obj 1\\
1: 176:2 204:1 obj 1\\
3: 196:1 198:2 275:1 obj 1\\
1: 197:2 198:1 275:1 obj 1\\
1: 210:1 213:1 216:1 238:1 obj 1\\
1: 212:1 217:1 220:2 obj 1\\
1: 245:4 253:1 263:1 obj 1\\



The last LP solution 


File: BPP_1000_400_0.1_0.8_0.txt  Instance No. 1
Wed Feb 25 13:54:51 2015

LP solution: lpval=435.471032745592 lpbnd=436

4: 0:1 237:1 obj 1\\
2: 1:1 236:1 obj 1\\
1: 2:1 235:1 obj 1\\
2.141298405793246: 2:1 236:1 obj 1\\
4: 3:1 234:1 obj 1\\
1: 4:1 233:1 obj 1\\
0.3299538169086998: 4:1 234:1 obj 1\\
3: 5:1 232:1 obj 1\\
5: 6:1 231:1 obj 1\\
1: 7:1 230:1 obj 1\\
1: 8:1 229:1 obj 1\\
0.8299538169086997: 8:1 272:2 obj 1\\
1: 9:1 228:1 obj 1\\
3: 10:1 227:1 obj 1\\
3: 11:1 226:1 obj 1\\
4: 12:1 225:1 obj 1\\
3: 13:1 224:1 obj 1\\
1: 14:1 223:1 obj 1\\
2: 15:1 222:1 obj 1\\
3: 16:1 221:1 obj 1\\
2: 17:1 220:1 obj 1\\
3: 18:1 219:1 obj 1\\
3: 19:1 218:1 obj 1\\
2: 20:1 217:1 obj 1\\
1: 21:1 216:1 obj 1\\
4: 22:1 215:1 obj 1\\
2: 23:1 214:1 obj 1\\
1: 24:1 213:1 obj 1\\
2: 25:1 212:1 obj 1\\
5: 26:1 211:1 obj 1\\
2: 27:1 210:1 obj 1\\
3: 28:1 209:1 obj 1\\
3: 29:1 208:1 obj 1\\
1: 30:1 207:1 obj 1\\
2: 31:1 206:1 obj 1\\
1.859731290937105: 31:1 254:1 267:1 obj 1\\
1.3299538169087: 31:1 257:1 264:1 obj 1\\
3: 32:1 205:1 obj 1\\
3.81090035542769: 32:1 250:1 270:1 obj 1\\
0.1890996445723101: 32:1 255:1 265:1 obj 1\\
5: 33:1 204:1 obj 1\\
1: 34:1 203:1 obj 1\\
2: 35:1 202:1 obj 1\\
0.8556763868739348: 35:1 256:1 261:1 obj 1\\
3: 36:1 201:1 obj 1\\
2: 37:1 200:1 obj 1\\
2: 38:1 199:1 obj 1\\
1: 39:1 198:1 obj 1\\
2: 40:1 197:1 obj 1\\
1: 41:1 196:1 obj 1\\
3: 42:1 195:1 obj 1\\
3: 43:1 194:1 obj 1\\
3: 44:1 193:1 obj 1\\
2: 45:1 192:1 obj 1\\
2: 46:1 191:1 obj 1\\
4: 46:1 248:1 258:1 obj 1\\
3: 47:1 190:1 obj 1\\
3: 48:1 189:1 obj 1\\
5: 49:1 188:1 obj 1\\
1: 50:1 187:1 obj 1\\
4: 51:1 186:1 obj 1\\
3: 52:1 185:1 obj 1\\
4: 53:1 184:1 obj 1\\
3: 54:1 183:1 obj 1\\
3: 55:1 182:1 obj 1\\
2: 56:1 181:1 obj 1\\
0.3647098977505944: 57:1 181:1 obj 1\\
1.691082223090728: 57:1 227:1 269:1 obj 1\\
3: 58:1 180:1 obj 1\\
5: 59:1 179:1 obj 1\\
2: 60:1 178:1 obj 1\\
1: 61:1 177:1 obj 1\\
3: 62:1 176:1 obj 1\\
4: 63:1 175:1 obj 1\\
1: 63:1 176:1 obj 1\\
2: 64:1 174:1 obj 1\\
2: 64:1 244:2 obj 1\\
4: 65:1 173:1 obj 1\\
2: 66:1 172:1 obj 1\\
0.4201642292825762: 66:1 240:1 246:1 obj 1\\
4: 67:1 171:1 obj 1\\
2: 68:1 170:1 obj 1\\
6: 69:1 169:1 obj 1\\
2: 70:1 168:1 obj 1\\
4: 71:1 167:1 obj 1\\
2: 72:1 166:1 obj 1\\
1: 73:1 165:1 obj 1\\
4: 74:1 164:1 obj 1\\
2: 75:1 163:1 obj 1\\
3: 76:1 162:1 obj 1\\
1: 77:1 161:1 obj 1\\
2: 78:1 160:1 obj 1\\
0.5341715997519985: 78:1 161:1 obj 1\\
1: 79:1 159:1 obj 1\\
1: 80:1 158:1 obj 1\\
2: 81:1 157:1 obj 1\\
2: 82:1 156:1 obj 1\\
4: 83:1 155:1 obj 1\\
3: 84:1 154:1 obj 1\\
3: 85:1 153:1 obj 1\\
0.8465048382773321: 85:1 195:1 273:1 obj 1\\
0.1534951617226679: 85:1 201:1 267:1 obj 1\\
3: 85:1 218:1 250:1 obj 1\\
2: 86:1 152:1 obj 1\\
2: 87:1 151:1 obj 1\\
1: 87:1 152:1 obj 1\\
3: 88:1 150:1 obj 1\\
3: 89:1 149:1 obj 1\\
1: 89:1 194:1 270:1 obj 1\\
2: 90:1 148:1 obj 1\\
3: 91:1 147:1 obj 1\\
1: 92:1 146:1 obj 1\\
0.3944590930762197: 92:1 194:1 267:1 obj 1\\
1: 93:1 145:1 obj 1\\
1: 94:1 144:1 obj 1\\
1: 95:1 143:1 obj 1\\
3: 96:1 142:1 obj 1\\
2: 97:1 141:1 obj 1\\
2: 98:1 140:1 obj 1\\
3: 99:1 139:1 obj 1\\
2: 100:1 138:1 obj 1\\
1.889488712050369: 100:1 213:1 240:1 obj 1\\
2: 101:1 137:1 obj 1\\
1: 102:1 136:1 obj 1\\
2: 103:1 135:1 obj 1\\
1.322531414528541: 104:1 187:1 262:1 obj 1\\
3: 105:1 134:1 obj 1\\
3: 106:1 133:1 obj 1\\
0.0819247115347238: 106:1 199:1 248:1 obj 1\\
2.692785656845513: 106:1 220:1 228:1 obj 1\\
3: 107:1 132:1 obj 1\\
3: 108:1 131:1 obj 1\\
0.4511891174057245: 108:1 203:1 242:1 obj 1\\
2: 109:1 130:1 obj 1\\
2: 110:1 129:1 obj 1\\
4: 111:1 128:1 obj 1\\
6: 112:1 127:1 obj 1\\
4: 113:1 126:1 obj 1\\
2: 114:1 124:1 obj 1\\
1: 115:1 123:1 obj 1\\
3: 116:1 122:1 obj 1\\
0.6597376342061809: 116:1 123:1 obj 1\\
2: 117:1 121:1 obj 1\\
1: 118:1 120:1 obj 1\\
3: 119:2 obj 1\\
1: 124:1 165:1 264:1 obj 1\\
1: 128:1 157:1 268:1 obj 1\\
2.506412472094732: 128:1 173:1 252:1 obj 1\\
1.08619401809264: 134:1 171:1 248:1 obj 1\\
0.01882604505357999: 143:2 266:1 obj 1\\
1.835405836216794: 35:1 203:1 obj 1\\
0.1700461830913002: 64:1 225:1 264:1 obj 1\\
1.055223354689007: 108:1 196:1 249:1 obj 1\\
0.6599076338173996: 5:1 273:1 274:1 obj 1\\
2.92469581978568: 145:1 165:1 242:1 obj 1\\
0.005327650309899346: 176:2 201:1 obj 1\\
0.3072143431544873: 58:1 220:1 275:1 obj 1\\
0.2061140929022911: 58:1 247:2 obj 1\\
0.06980337912082285: 125:1 214:2 obj 1\\
1.634015064240946: 156:1 198:2 obj 1\\
0.03765209010715997: 165:1 190:1 197:1 obj 1\\
2.858701594206754: 2:1 275:2 obj 1\\
1: 51:1 247:1 254:1 obj 1\\
0.7917226477214365: 57:1 238:1 257:1 obj 1\\
1: 83:1 198:1 272:1 obj 1\\
0.5341715997519985: 84:1 216:1 253:1 obj 1\\
1.404746852408498: 110:1 210:1 234:1 obj 1\\
0.5: 144:2 264:1 obj 1\\
1.1700461830913: 8:1 268:1 276:1 obj 1\\
1.195938752667754: 28:1 259:1 265:1 obj 1\\
1: 44:1 245:1 263:1 obj 1\\
0.1492933802871678: 66:1 234:1 253:1 obj 1\\
2: 88:1 226:1 239:1 obj 1\\
1.60554090692378: 92:1 196:1 265:1 obj 1\\
1.587771814195418: 103:1 203:1 247:1 obj 1\\
0.340262365793819: 116:1 176:1 261:1 obj 1\\
1.121676464630136: 128:1 158:1 267:1 obj 1\\
1: 137:1 140:1 275:1 obj 1\\
0.4478126157390834: 145:2 262:1 obj 1\\
0.6700461830913003: 4:1 274:2 obj 1\\
0.8299538169086997: 13:1 263:1 276:1 obj 1\\
1.1700461830913: 13:1 268:1 271:1 obj 1\\
2.804061247332246: 28:1 261:1 263:1 obj 1\\
1: 29:1 256:1 267:1 obj 1\\
1.430542390430256: 66:1 243:2 obj 1\\
1: 74:1 165:1 obj 1\\
1.110511287949631: 84:1 213:1 256:1 obj 1\\
0.1396067582416457: 99:1 227:1 228:1 obj 1\\
1.339235738387214: 104:1 196:1 253:1 obj 1\\
1.918075288465276: 109:1 199:1 245:1 obj 1\\
0.5877718141954178: 125:1 192:1 236:1 obj 1\\
0.6930096765546643: 126:1 179:1 248:1 obj 1\\
0.9138059819073596: 128:1 171:1 254:1 obj 1\\
1.226462727155535: 137:1 161:1 254:1 obj 1\\
2.96234790989284: 143:1 197:1 212:1 obj 1\\
1.990579304163844: 145:1 203:1 204:1 obj 1\\
0.3089177769092717: 35:1 248:1 269:1 obj 1\\
0.4122281858045822: 53:1 246:1 253:1 obj 1\\
1: 61:1 239:1 252:1 obj 1\\
1: 71:1 240:1 241:1 obj 1\\
1.832392415087158: 79:1 236:1 238:1 obj 1\\
0.6352901022494056: 97:1 181:1 275:1 obj 1\\
1.430602631024315: 100:1 198:1 255:1 obj 1\\
0.4122281858045822: 103:1 192:1 258:1 obj 1\\
0.3382328470842451: 104:1 190:1 259:1 obj 1\\
0.6774685854714586: 106:1 187:1 260:1 obj 1\\
0.4935875279052682: 108:1 173:1 273:1 obj 1\\
0.6112867219008531: 109:1 201:1 243:1 obj 1\\
0.5952531475915022: 110:1 198:1 245:1 obj 1\\
1: 112:1 183:1 258:1 obj 1\\
2: 120:1 166:1 267:1 obj 1\\
1: 123:1 169:1 261:1 obj 1\\
1.878323535369864: 137:1 158:1 257:1 obj 1\\
1.03765209010716: 165:1 176:1 212:1 obj 1\\
1: 173:2 207:1 obj 1\\
0.1534951617226679: 179:2 195:1 obj 1\\
1: 7:1 272:1 273:1 obj 1\\
1: 15:1 264:1 273:1 obj 1\\
1: 48:1 241:1 263:1 obj 1\\
0.8299538169086997: 57:1 225:1 271:1 obj 1\\
0.4866715639432216: 58:1 245:1 249:1 obj 1\\
0.8299538169086997: 64:1 240:1 248:1 obj 1\\
0.2938859070977089: 70:1 217:1 266:1 obj 1\\
2.167607584912842: 79:1 228:1 246:1 obj 1\\
0.1160059503956345: 84:1 234:1 236:1 obj 1\\
0.1350539280182191: 97:1 203:1 253:1 obj 1\\
0.5952531475915022: 100:1 210:1 243:1 obj 1\\
0.5478210461483055: 106:1 134:1 obj 1\\
0.4706379896338708: 109:1 178:1 267:1 obj 1\\
0.1533251621114493: 125:1 176:1 252:1 obj 1\\
0.7061140929022911: 137:1 198:1 217:1 obj 1\\
2: 145:1 156:1 251:1 obj 1\\
0.9323753496471308: 148:1 161:1 243:1 obj 1\\
1: 176:1 182:1 194:1 obj 1\\
2.43001716775082: 31:1 253:1 268:1 obj 1\\
0.3802977244033754: 31:1 255:1 266:1 obj 1\\
0.5877718141954178: 53:1 241:1 258:1 obj 1\\
0.3225314145285414: 57:1 236:1 260:1 obj 1\\
1: 66:1 237:1 250:1 obj 1\\
1: 68:1 220:1 265:1 obj 1\\
0.2298904660665797: 84:1 201:1 268:1 obj 1\\
0.2296559697323752: 97:1 194:1 262:1 obj 1\\
0.8603932417583543: 99:1 214:1 240:1 obj 1\\
1: 108:1 223:2 obj 1\\
0.624115062808595: 120:1 190:1 242:1 obj 1\\
0.340262365793819: 123:1 178:1 252:1 obj 1\\
2.306990323445336: 126:1 161:1 266:1 obj 1\\
0.4581050813677723: 128:1 176:1 249:1 obj 1\\
0.1890996445723101: 137:1 145:1 270:1 obj 1\\
0.3400923661826004: 5:1 272:1 275:1 obj 1\\
0.7061140929022911: 70:1 241:2 obj 1\\
0.4658284002480015: 78:1 216:1 259:1 obj 1\\
1.009420695836156: 84:1 204:1 265:1 obj 1\\
0.08465550933381305: 100:1 227:2 obj 1\\
0.375884937191405: 120:1 194:1 238:1 obj 1\\
0.1890996445723101: 125:1 178:1 250:1 obj 1\\
0.3659849357590541: 134:1 156:1 263:1 obj 1\\
0.03381232517643462: 148:2 256:1 obj 1\\



